NAME : 10_3_3_1_(04).dat
COMMENT : Henke, Speranza, Wäscher, 2015
TYPE : MCVRP
DIMENSION : 11
EDGE_WEIGHT_TYPE : DISTANCE_MATRIX
CAPACITY : 1000
VEHICLES : 3
PRODUCT TYPES : 3
COMPARTMENTS : 3
NODE_COORD_SECTION
1 50 50
2 93.57 21.73
3 82.16 65.36
4 76.05 31.74
5 61.04 81.25
6 45.12 35.9
7 52.84 5.55
8 31.24 98.53
9 78.29 58.41
10 1.35 13.03
11 83 20.78
DEMAND_SECTION
1 0 0 0
2 0 106 0
3 0 0 216
4 40 0 0
5 0 69 0
6 730 0 0
7 0 29 0
8 0 45 0
9 0 0 92
10 0 104 0
11 0 109 0
DEPOT_SECTION
1
EOF